12 66
1 2 2
1 3 1
1 4 2
1 5 4
1 6 2
1 7 5
1 8 1
1 9 4
1 10 2
1 11 5
1 12 5
2 3 5
2 4 4
2 5 3
2 6 2
2 7 2
2 8 2
2 9 3
2 10 2
2 11 4
2 12 2
3 4 5
3 5 3
3 6 5
3 7 4
3 8 1
3 9 2
3 10 5
3 11 3
3 12 3
4 5 1
4 6 3
4 7 3
4 8 5
4 9 1
4 10 2
4 11 4
4 12 1
5 6 5
5 7 3
5 8 5
5 9 5
5 10 2
5 11 5
5 12 3
6 7 1
6 8 5
6 9 4
6 10 1
6 11 2
6 12 3
7 8 4
7 9 4
7 10 4
7 11 4
7 12 5
8 9 4
8 10 1
8 11 3
8 12 2
9 10 1
9 11 4
9 12 4
10 11 1
10 12 2
11 12 5
